n = 10;

m = 16;

38	53	13	58	37	34	25	37	27	72		
35	53	46	68	54	29	32	60	17	41
7	61	33	2	2	8	61	57	34	3
4	21	8	51	61	43	5	42	41	66	
27	36	4	34	50	12	68	49	41	71 	
38	72	49	59	13	10	60	29	51	79		
77	1	25	23	14	54	57	77	30	20	
77	17	64	69	69	73	18	9	79	73	
41	7	17	53	57	31	21	37	63	50
61	27	37	2	43	44	73	57	46	77
69	19	35	78	32	8	37	15	64	72
69	29	28	17	21	10	67	31	38	78
20	12	21	64	73	51	78	31	39	73
27	61	25	45	35	71	12	46	13	66
42	65	74	68	1	5	56	56	33	67	
27	36	4	34	50	12	68	49	41	71 